(set-info :source |printed by MathSAT|)
(declare-fun call_speed.flby2.next () Bool)
(declare-fun param_second () Bool)
(declare-fun call_speed.incr.next () Int)
(declare-fun call_speed.call_counter.ite2.next () Int)
(declare-fun call_speed.call_counter.flby.next () Int)
(declare-fun call_speed.call_counter.ite () Int)
(declare-fun call_speed.late () Bool)
(declare-fun call_speed.call_counter.pc () Int)
(declare-fun call_speed.flby.next () Bool)
(declare-fun call_speed.ite.next () Int)
(declare-fun call_speed.call_counter.ite.next () Int)
(declare-fun call_speed.late.next () Bool)
(declare-fun flby () Bool)
(declare-fun call_speed.ite2.next () Int)
(declare-fun flby2.next () Bool)
(declare-fun call_speed.call_counter.c () Int)
(declare-fun call_speed.call_counter.flby () Int)
(declare-fun late () Bool)
(declare-fun early.next () Bool)
(declare-fun call_speed.ite4.next () Bool)
(declare-fun early () Bool)
(declare-fun _OK_.next () Bool)
(declare-fun call_speed.call_counter.c.next () Int)
(declare-fun late.next () Bool)
(declare-fun call_speed.diff () Int)
(declare-fun param_second.next () Bool)
(declare-fun call_speed.ite () Int)
(declare-fun call_speed.ite3.next () Bool)
(declare-fun param_beacon.next () Bool)
(declare-fun param_beacon () Bool)
(declare-fun flby.next () Bool)
(declare-fun call_speed.call_counter.ite2 () Int)
(declare-fun call_speed.early.next () Bool)
(declare-fun call_speed.call_counter.pc.next () Int)
(declare-fun call_speed.diff.next () Int)
(declare-fun call_speed.flby2 () Bool)
(declare-fun call_speed.incr () Int)
(declare-fun call_speed.early () Bool)
(declare-fun call_speed.flby () Bool)
(declare-fun _OK_ () Bool)
(declare-fun call_speed.ite2 () Int)
(declare-fun flby2 () Bool)
(define-fun .def_430 () Bool (= call_speed.call_counter.ite.next call_speed.call_counter.ite2.next))
(define-fun .def_428 () Bool (= call_speed.call_counter.flby.next call_speed.call_counter.pc.next))
(define-fun .def_426 () Bool (= call_speed.call_counter.c.next call_speed.call_counter.ite2.next))
(define-fun .def_423 () Bool (= call_speed.incr.next call_speed.ite2.next))
(define-fun .def_421 () Bool (= call_speed.diff.next call_speed.call_counter.c.next))
(define-fun .def_418 () Bool (= call_speed.flby.next call_speed.early.next))
(define-fun .def_416 () Bool (= call_speed.flby2.next call_speed.late.next))
(define-fun .def_412 () Bool (= call_speed.ite.next call_speed.ite2.next))
(define-fun .def_407 () Bool (not param_second.next))
(define-fun .def_408 () Bool (and param_beacon.next .def_407))
(define-fun .def_413 () Bool (or .def_408 .def_412))
(define-fun .def_409 () Bool (not .def_408))
(define-fun .def_406 () Bool (= call_speed.ite2.next 1))
(define-fun .def_410 () Bool (or .def_406 .def_409))
(define-fun .def_402 () Bool (= call_speed.ite.next 0))
(define-fun .def_397 () Bool (not param_beacon.next))
(define-fun .def_398 () Bool (and param_second.next .def_397))
(define-fun .def_403 () Bool (or .def_398 .def_402))
(define-fun .def_399 () Bool (not .def_398))
(define-fun .def_396 () Bool (= call_speed.ite.next (- 1)))
(define-fun .def_400 () Bool (or .def_396 .def_399))
(define-fun .def_389 () Int (* (- 1) call_speed.call_counter.ite.next))
(define-fun .def_390 () Int (+ .def_389 call_speed.incr.next))
(define-fun .def_391 () Int (+ call_speed.call_counter.pc.next .def_390))
(define-fun .def_392 () Bool (= .def_391 0))
(define-fun .def_379 () Bool (<= 1000 call_speed.call_counter.pc.next))
(define-fun .def_380 () Bool (not .def_379))
(define-fun .def_377 () Bool (or param_beacon.next param_second.next))
(define-fun .def_373 () Bool (<= call_speed.call_counter.pc.next (- 1000)))
(define-fun .def_374 () Bool (not .def_373))
(define-fun .def_378 () Bool (and .def_374 .def_377))
(define-fun .def_381 () Bool (and .def_378 .def_380))
(define-fun .def_383 () Bool (not .def_381))
(define-fun .def_393 () Bool (or .def_383 .def_392))
(define-fun .def_372 () Bool (= call_speed.call_counter.pc.next call_speed.call_counter.ite.next))
(define-fun .def_382 () Bool (or .def_372 .def_381))
(define-fun .def_394 () Bool (and .def_382 .def_393))
(define-fun .def_401 () Bool (and .def_394 .def_400))
(define-fun .def_404 () Bool (and .def_401 .def_403))
(define-fun .def_411 () Bool (and .def_404 .def_410))
(define-fun .def_414 () Bool (and .def_411 .def_413))
(define-fun .def_368 () Bool (= early.next call_speed.early.next))
(define-fun .def_365 () Bool (= late.next call_speed.late.next))
(define-fun .def_359 () Bool (and late.next early.next))
(define-fun .def_360 () Bool (not .def_359))
(define-fun .def_361 () Bool (and flby.next .def_360))
(define-fun .def_362 () Bool (and flby2.next .def_361))
(define-fun .def_363 () Bool (= _OK_.next .def_362))
(define-fun .def_366 () Bool (and .def_363 .def_365))
(define-fun .def_369 () Bool (and .def_366 .def_368))
(define-fun .def_415 () Bool (and .def_369 .def_414))
(define-fun .def_417 () Bool (and .def_415 .def_416))
(define-fun .def_419 () Bool (and .def_417 .def_418))
(define-fun .def_422 () Bool (and .def_419 .def_421))
(define-fun .def_424 () Bool (and .def_422 .def_423))
(define-fun .def_427 () Bool (and .def_424 .def_426))
(define-fun .def_429 () Bool (and .def_427 .def_428))
(define-fun .def_431 () Bool (and .def_429 .def_430))
(define-fun .def_305 () Bool (= call_speed.call_counter.ite call_speed.call_counter.ite2))
(define-fun .def_303 () Bool (= call_speed.call_counter.pc call_speed.call_counter.flby))
(define-fun .def_300 () Bool (= call_speed.call_counter.c call_speed.call_counter.ite2))
(define-fun .def_297 () Bool (= call_speed.incr call_speed.ite2))
(define-fun .def_295 () Bool (= call_speed.diff call_speed.call_counter.c))
(define-fun .def_291 () Bool (= call_speed.early call_speed.flby))
(define-fun .def_288 () Bool (= call_speed.late call_speed.flby2))
(define-fun .def_283 () Bool (= call_speed.ite call_speed.ite2))
(define-fun .def_278 () Bool (not param_second))
(define-fun .def_279 () Bool (and param_beacon .def_278))
(define-fun .def_284 () Bool (or .def_279 .def_283))
(define-fun .def_280 () Bool (not .def_279))
(define-fun .def_277 () Bool (= call_speed.ite2 1))
(define-fun .def_281 () Bool (or .def_277 .def_280))
(define-fun .def_273 () Bool (= call_speed.ite 0))
(define-fun .def_268 () Bool (not param_beacon))
(define-fun .def_269 () Bool (and param_second .def_268))
(define-fun .def_274 () Bool (or .def_269 .def_273))
(define-fun .def_270 () Bool (not .def_269))
(define-fun .def_267 () Bool (= call_speed.ite (- 1)))
(define-fun .def_271 () Bool (or .def_267 .def_270))
(define-fun .def_260 () Int (* (- 1) call_speed.call_counter.ite))
(define-fun .def_261 () Int (+ .def_260 call_speed.incr))
(define-fun .def_262 () Int (+ call_speed.call_counter.pc .def_261))
(define-fun .def_263 () Bool (= .def_262 0))
(define-fun .def_250 () Bool (<= 1000 call_speed.call_counter.pc))
(define-fun .def_251 () Bool (not .def_250))
(define-fun .def_248 () Bool (or param_beacon param_second))
(define-fun .def_244 () Bool (<= call_speed.call_counter.pc (- 1000)))
(define-fun .def_245 () Bool (not .def_244))
(define-fun .def_249 () Bool (and .def_245 .def_248))
(define-fun .def_252 () Bool (and .def_249 .def_251))
(define-fun .def_254 () Bool (not .def_252))
(define-fun .def_264 () Bool (or .def_254 .def_263))
(define-fun .def_243 () Bool (= call_speed.call_counter.pc call_speed.call_counter.ite))
(define-fun .def_253 () Bool (or .def_243 .def_252))
(define-fun .def_265 () Bool (and .def_253 .def_264))
(define-fun .def_272 () Bool (and .def_265 .def_271))
(define-fun .def_275 () Bool (and .def_272 .def_274))
(define-fun .def_282 () Bool (and .def_275 .def_281))
(define-fun .def_285 () Bool (and .def_282 .def_284))
(define-fun .def_239 () Bool (= early call_speed.early))
(define-fun .def_236 () Bool (= late call_speed.late))
(define-fun .def_228 () Bool (and late early))
(define-fun .def_229 () Bool (not .def_228))
(define-fun .def_231 () Bool (and .def_229 flby))
(define-fun .def_233 () Bool (and .def_231 flby2))
(define-fun .def_234 () Bool (= _OK_ .def_233))
(define-fun .def_237 () Bool (and .def_234 .def_236))
(define-fun .def_240 () Bool (and .def_237 .def_239))
(define-fun .def_286 () Bool (and .def_240 .def_285))
(define-fun .def_289 () Bool (and .def_286 .def_288))
(define-fun .def_292 () Bool (and .def_289 .def_291))
(define-fun .def_296 () Bool (and .def_292 .def_295))
(define-fun .def_298 () Bool (and .def_296 .def_297))
(define-fun .def_301 () Bool (and .def_298 .def_300))
(define-fun .def_304 () Bool (and .def_301 .def_303))
(define-fun .def_306 () Bool (and .def_304 .def_305))
(define-fun .def_432 () Bool (and .def_306 .def_431))
(define-fun .def_356 () Bool (= call_speed.call_counter.c call_speed.call_counter.flby.next))
(define-fun .def_353 () Bool (= call_speed.ite4.next call_speed.flby2.next))
(define-fun .def_350 () Bool (= call_speed.ite3.next call_speed.flby.next))
(define-fun .def_345 () Bool (not call_speed.early))
(define-fun .def_342 () Bool (<= call_speed.diff.next 0))
(define-fun .def_343 () Bool (not .def_342))
(define-fun .def_344 () Bool (= call_speed.ite3.next .def_343))
(define-fun .def_346 () Bool (or .def_344 .def_345))
(define-fun .def_338 () Bool (<= 10 call_speed.diff.next))
(define-fun .def_340 () Bool (= .def_338 call_speed.ite3.next))
(define-fun .def_341 () Bool (or call_speed.early .def_340))
(define-fun .def_347 () Bool (and .def_341 .def_346))
(define-fun .def_334 () Bool (not call_speed.late))
(define-fun .def_331 () Bool (<= 0 call_speed.diff.next))
(define-fun .def_332 () Bool (not .def_331))
(define-fun .def_333 () Bool (= call_speed.ite4.next .def_332))
(define-fun .def_335 () Bool (or .def_333 .def_334))
(define-fun .def_327 () Bool (<= call_speed.diff.next (- 10)))
(define-fun .def_329 () Bool (= .def_327 call_speed.ite4.next))
(define-fun .def_330 () Bool (or call_speed.late .def_329))
(define-fun .def_336 () Bool (and .def_330 .def_335))
(define-fun .def_321 () Bool (and late early.next))
(define-fun .def_322 () Bool (not .def_321))
(define-fun .def_324 () Bool (= .def_322 flby2.next))
(define-fun .def_316 () Bool (and early late.next))
(define-fun .def_317 () Bool (not .def_316))
(define-fun .def_319 () Bool (= .def_317 flby.next))
(define-fun .def_325 () Bool (and .def_319 .def_324))
(define-fun .def_337 () Bool (and .def_325 .def_336))
(define-fun .def_348 () Bool (and .def_337 .def_347))
(define-fun .def_351 () Bool (and .def_348 .def_350))
(define-fun .def_354 () Bool (and .def_351 .def_353))
(define-fun .def_357 () Bool (and .def_354 .def_356))
(define-fun .def_433 () Bool (and .def_357 .def_432))
(assert .def_433)
